77      4       
10      10      10      10      
0       0       0       0       0       7       2       3       4       5       6       7       8       
6       1       1       1       1       9       9       10      11      12      13      14      15      19      21      
5       4       6       4       7       9       10      13      14      15      16      19      21      23      25      
8       1       6       3       8       5       11      14      15      17      21      
6       5       5       4       1       7       13      14      15      16      18      21      23      
7       3       3       9       3       8       15      16      19      21      23      24      25      26      
9       7       8       3       4       7       14      18      20      21      22      23      24      
1       4       9       6       5       5       14      16      17      21      24      
8       7       5       3       5       9       17      20      22      24      25      26      28      30      34      
1       3       1       3       7       8       17      18      20      22      24      26      28      34      
10      5       2       2       3       6       16      18      20      24      25      28      
8       7       4       9       5       9       22      23      24      25      26      28      29      33      34      
10      6       5       7       10      6       17      22      24      26      30      34      
1       6       3       6       3       8       26      28      29      32      33      34      35      38      
10      3       10      6       5       6       22      27      28      29      33      34      
5       6       5       6       7       6       22      30      33      34      36      37      
3       8       5       6       5       7       27      29      31      32      33      38      40      
2       5       3       6       5       7       27      29      30      31      35      38      40      
3       4       3       8       9       6       30      34      35      36      37      38      
1       5       2       3       6       6       32      35      36      37      38      40      
9       5       2       5       2       5       31      34      35      36      37      
9       4       9       3       3       5       31      32      35      38      40      
8       4       4       10      2       3       27      31      40      
4       10      6       8       2       6       31      36      37      40      43      44      
2       5       4       5       3       3       27      39      40      
7       6       3       6       7       2       27      31      
8       7       4       6       10      7       36      37      42      43      44      46      56      
10      4       3       2       4       6       39      40      41      42      43      44      
6       2       9       4       2       7       39      41      42      43      45      46      55      
2       8       4       2       7       7       42      43      44      45      46      50      56      
5       5       6       8       6       5       39      42      45      46      55      
2       6       3       6       7       5       39      41      42      46      55      
3       5       6       4       4       4       39      42      46      55      
8       7       2       9       5       2       39      40      
2       7       3       4       6       6       43      44      45      50      52      56      
4       4       6       5       2       4       41      45      48      51      
10      5       7       3       3       4       41      45      51      55      
10      5       3       5       6       3       41      42      45      
8       4       3       4       4       7       47      48      49      50      51      52      56      
3       4       8       5       4       8       45      46      48      51      52      53      56      61      
10      4       4       5       4       4       47      49      50      52      
7       4       4       5       5       5       49      51      52      57      61      
2       7       4       5       6       5       48      51      53      58      61      
8       10      5       7       7       5       47      53      54      58      63      
3       5       9       3       4       6       54      57      58      59      60      67      
7       6       9       6       9       6       57      60      62      63      65      67      
9       5       5       8       2       5       57      59      60      61      65      
8       3       2       5       7       4       54      57      59      63      
6       8       7       8       4       2       53      65      
10      2       6       3       4       5       58      62      63      64      70      
9       3       5       4       6       5       60      62      64      67      76      
5       5       7       3       5       2       54      63      
6       3       7       4       5       3       59      64      67      
6       4       2       8       6       6       64      65      66      68      70      76      
10      6       8       4       6       2       58      66      
9       4       5       7       8       6       66      68      69      70      73      76      
10      6       5       3       3       5       64      66      68      69      76      
4       7       8       5       6       5       65      68      74      75      76      
3       5       9       4       4       3       62      68      76      
7       6       5       8       7       6       68      69      70      73      74      75      
1       5       7       2       3       3       64      70      75      
10      5       6       5       7       3       66      72      73      
5       1       5       4       6       4       68      69      73      76      
9       3       3       7       4       4       71      72      73      74      
3       3       3       3       4       3       69      71      73      
8       8       6       2       3       3       71      74      75      
7       4       5       3       5       1       70      
6       6       5       8       3       1       72      
5       7       6       4       3       1       72      
9       2       3       5       6       1       71      
7       4       5       3       9       1       77      
7       6       3       6       4       1       77      
4       5       9       5       4       1       77      
2       3       5       3       7       1       77      
5       9       2       6       7       1       77      
7       4       5       5       4       1       77      
0       0       0       0       0       0       
